100 4 100
52 9 42 37 43 21 91 28 73 53 56 61 54 5 95 99 83 14 44 77 70 1 96 80 29 57 22 65 86 47 17 47 90 6 91 63 50 71 36 3 27 97 9 84 44 8 19 11 4 96 81 57 45 62 86 2 14 60 67 52 8 36 51 50 43 94 13 93 65 1 48 44 50 57 28 94 17 47 5 22 44 39 31 41 1 70 43 67 30 10 71 90 98 22 92 41 17 57 34 34 
